(set-info :status sat)
(declare-const symbol_225 (_ BitVec 32))
(declare-const symbol_216 (_ BitVec 32))
(declare-const symbol_317 (_ BitVec 32))
(declare-const symbol_240 (_ BitVec 32))
(declare-const symbol_78 (_ BitVec 32))
(declare-const symbol_298 (_ BitVec 32))
(declare-const symbol_125 (_ BitVec 32))
(declare-const symbol_189 (_ BitVec 32))
(declare-const symbol_73 (_ BitVec 32))
(declare-const symbol_42 (_ BitVec 32))
(declare-const symbol_271 (_ BitVec 32))
(declare-const symbol_156 (_ BitVec 32))
(declare-const symbol_110 (_ BitVec 32))
(declare-const symbol_198 (_ BitVec 32))
(declare-const symbol_296 (_ BitVec 32))
(declare-const symbol_152 (_ BitVec 32))
(declare-const symbol_257 (_ BitVec 32))
(declare-const symbol_250 (_ BitVec 32))
(declare-const symbol_106 (_ BitVec 32))
(declare-const symbol_131 (_ BitVec 32))
(declare-const symbol_137 (_ BitVec 32))
(declare-const symbol_102 (_ BitVec 32))
(declare-const symbol_60 (_ BitVec 32))
(declare-const symbol_84 (_ BitVec 32))
(declare-const symbol_26 (_ BitVec 32))
(declare-const symbol_301 (_ BitVec 32))
(declare-const symbol_28 (_ BitVec 32))
(declare-const symbol_158 (_ BitVec 32))
(declare-const symbol_323 (_ BitVec 32))
(declare-const symbol_104 (_ BitVec 32))
(declare-const symbol_166 (_ BitVec 32))
(declare-const symbol_44 (_ BitVec 32))
(declare-const symbol_96 (_ BitVec 32))
(declare-const symbol_181 (_ BitVec 32))
(declare-const symbol_47 (_ BitVec 32))
(declare-const symbol_255 (_ BitVec 32))
(declare-const symbol_52 (_ BitVec 32))
(declare-const symbol_16 (_ BitVec 32))
(declare-const symbol_288 (_ BitVec 32))
(declare-const symbol_267 (_ BitVec 32))
(declare-const symbol_265 (_ BitVec 32))
(declare-const symbol_14 (_ BitVec 32))
(declare-const symbol_311 (_ BitVec 32))
(declare-const symbol_221 (_ BitVec 32))
(declare-const symbol_24 (_ BitVec 32))
(declare-const symbol_1 (_ BitVec 32))
(declare-const symbol_185 (_ BitVec 32))
(declare-const symbol_22 (_ BitVec 32))
(declare-const symbol_281 (_ BitVec 32))
(declare-const symbol_67 (_ BitVec 32))
(declare-const symbol_219 (_ BitVec 32))
(declare-const symbol_176 (_ BitVec 32))
(declare-const symbol_234 (_ BitVec 32))
(declare-const symbol_228 (_ BitVec 32))
(declare-const symbol_80 (_ BitVec 32))
(declare-const symbol_50 (_ BitVec 32))
(declare-const symbol_269 (_ BitVec 32))
(declare-const symbol_244 (_ BitVec 32))
(declare-const symbol_200 (_ BitVec 32))
(declare-const symbol_40 (_ BitVec 32))
(declare-const symbol_30 (_ BitVec 32))
(declare-const symbol_300 (_ BitVec 32))
(declare-const symbol_277 (_ BitVec 32))
(declare-const symbol_154 (_ BitVec 32))
(declare-const symbol_86 (_ BitVec 32))
(declare-const symbol_98 (_ BitVec 32))
(declare-const symbol_20 (_ BitVec 32))
(declare-const symbol_212 (_ BitVec 32))
(declare-const symbol_208 (_ BitVec 32))
(declare-const symbol_194 (_ BitVec 32))
(declare-const symbol_242 (_ BitVec 32))
(declare-const symbol_39 (_ BitVec 32))
(declare-const symbol_210 (_ BitVec 32))
(declare-const symbol_12 (_ BitVec 32))
(declare-const symbol_290 (_ BitVec 32))
(declare-const symbol_238 (_ BitVec 32))
(declare-const symbol_223 (_ BitVec 32))
(declare-const symbol_273 (_ BitVec 32))
(declare-const symbol_76 (_ BitVec 32))
(declare-const symbol_70 (_ BitVec 32))
(declare-const symbol_309 (_ BitVec 32))
(declare-const symbol_261 (_ BitVec 32))
(declare-const symbol_187 (_ BitVec 32))
(declare-const symbol_90 (_ BitVec 32))
(declare-const symbol_32 (_ BitVec 32))
(declare-const symbol_321 (_ BitVec 32))
(declare-const symbol_232 (_ BitVec 32))
(declare-const symbol_305 (_ BitVec 32))
(declare-const symbol_162 (_ BitVec 32))
(declare-const symbol_150 (_ BitVec 32))
(declare-const symbol_160 (_ BitVec 32))
(declare-const symbol_294 (_ BitVec 32))
(declare-const symbol_112 (_ BitVec 32))
(declare-const symbol_283 (_ BitVec 32))
(declare-const symbol_303 (_ BitVec 32))
(declare-const symbol_118 (_ BitVec 32))
(declare-const symbol_45 (_ BitVec 32))
(declare-const symbol_164 (_ BitVec 32))
(declare-const symbol_319 (_ BitVec 32))
(declare-const symbol_253 (_ BitVec 32))
(declare-const symbol_63 (_ BitVec 32))
(declare-const symbol_141 (_ BitVec 32))
(declare-const symbol_204 (_ BitVec 32))
(declare-const symbol_168 (_ BitVec 32))
(declare-const symbol_116 (_ BitVec 32))
(declare-const symbol_172 (_ BitVec 32))
(declare-const symbol_143 (_ BitVec 32))
(declare-const symbol_10 (_ BitVec 32))
(declare-const symbol_75 (_ BitVec 32))
(declare-const symbol_135 (_ BitVec 32))
(declare-const symbol_0 (_ BitVec 32))
(declare-const symbol_139 (_ BitVec 32))
(declare-const symbol_82 (_ BitVec 32))
(declare-const symbol_92 (_ BitVec 32))
(declare-const symbol_315 (_ BitVec 32))
(declare-const symbol_230 (_ BitVec 32))
(declare-const symbol_259 (_ BitVec 32))
(declare-const symbol_192 (_ BitVec 32))
(declare-const symbol_179 (_ BitVec 32))
(declare-const symbol_65 (_ BitVec 32))
(declare-const symbol_36 (_ BitVec 32))
(declare-const symbol_183 (_ BitVec 32))
(declare-const symbol_108 (_ BitVec 32))
(declare-const symbol_285 (_ BitVec 32))
(declare-const symbol_248 (_ BitVec 32))
(declare-const symbol_133 (_ BitVec 32))
(declare-const symbol_61 (_ BitVec 32))
(declare-const symbol_34 (_ BitVec 32))
(declare-const symbol_3 (_ BitVec 32))
(declare-const symbol_236 (_ BitVec 32))
(declare-const symbol_196 (_ BitVec 32))
(declare-const symbol_100 (_ BitVec 32))
(declare-const symbol_57 (_ BitVec 32))
(declare-const symbol_6 (_ BitVec 32))
(declare-const symbol_263 (_ BitVec 32))
(declare-const symbol_127 (_ BitVec 32))
(declare-const symbol_202 (_ BitVec 32))
(declare-const symbol_94 (_ BitVec 32))
(declare-const symbol_177 (_ BitVec 32))
(declare-const symbol_122 (_ BitVec 32))
(declare-const symbol_18 (_ BitVec 32))
(declare-const symbol_170 (_ BitVec 32))
(declare-const symbol_313 (_ BitVec 32))
(declare-const symbol_275 (_ BitVec 32))
(declare-const symbol_246 (_ BitVec 32))
(declare-const symbol_120 (_ BitVec 32))
(declare-const symbol_307 (_ BitVec 32))
(declare-const symbol_190 (_ BitVec 32))
(declare-const symbol_174 (_ BitVec 32))
(declare-const symbol_89 (_ BitVec 32))
(declare-const symbol_292 (_ BitVec 32))
(declare-const symbol_286 (_ BitVec 32))
(declare-const symbol_206 (_ BitVec 32))
(declare-const symbol_53 (_ BitVec 32))
(declare-const symbol_279 (_ BitVec 32))
(declare-const symbol_56 (_ BitVec 32))
(declare-const symbol_146 (_ BitVec 32))
(declare-const symbol_148 (_ BitVec 32))
(declare-const symbol_69 (_ BitVec 32))
(declare-const symbol_8 (_ BitVec 32))
(declare-const symbol_129 (_ BitVec 32))
(declare-const symbol_114 (_ BitVec 32))
(declare-const symbol_214 (_ BitVec 32))
(assert (not (not (= symbol_323 (_ bv1 32)))))
(assert (not (not (= symbol_321 (_ bv1 32)))))
(assert (not (not (= symbol_319 (_ bv1 32)))))
(assert (not (not (= symbol_317 (_ bv1 32)))))
(assert (not (not (= symbol_315 (_ bv1 32)))))
(assert (not (not (= symbol_313 (_ bv1 32)))))
(assert (not (not (= symbol_311 (_ bv1 32)))))
(assert (not (not (= symbol_309 (_ bv1 32)))))
(assert (not (not (= symbol_307 (_ bv1 32)))))
(assert (not (not (= symbol_305 (_ bv1 32)))))
(assert (not (not (= symbol_303 (_ bv1 32)))))
(assert (not (not (= symbol_301 (_ bv1 32)))))
(assert (not (not (= symbol_300 (_ bv1 32)))))
(assert (not (not (= symbol_298 (_ bv1 32)))))
(assert (not (not (= symbol_296 (_ bv1 32)))))
(assert (not (not (= symbol_294 (_ bv1 32)))))
(assert (not (not (= symbol_292 (_ bv1 32)))))
(assert (not (not (= symbol_290 (_ bv1 32)))))
(assert (not (not (= symbol_288 (_ bv1 32)))))
(assert (not (not (= symbol_286 (_ bv1 32)))))
(assert (not (not (= symbol_285 (_ bv1 32)))))
(assert (not (not (= symbol_283 (_ bv1 32)))))
(assert (not (not (= symbol_281 (_ bv1 32)))))
(assert (not (not (= symbol_279 (_ bv1 32)))))
(assert (not (not (= symbol_277 (_ bv1 32)))))
(assert (not (not (= symbol_275 (_ bv1 32)))))
(assert (not (not (= symbol_273 (_ bv1 32)))))
(assert (not (not (= symbol_271 (_ bv1 32)))))
(assert (not (not (= symbol_269 (_ bv1 32)))))
(assert (not (not (= symbol_267 (_ bv1 32)))))
(assert (not (not (= symbol_265 (_ bv1 32)))))
(assert (not (not (= symbol_263 (_ bv1 32)))))
(assert (not (not (= symbol_261 (_ bv1 32)))))
(assert (not (not (= symbol_259 (_ bv1 32)))))
(assert (not (not (= symbol_257 (_ bv1 32)))))
(assert (not (not (= symbol_255 (_ bv1 32)))))
(assert (not (not (= symbol_253 (_ bv1 32)))))
(assert (not (not (= symbol_250 (_ bv1 32)))))
(assert (not (not (= symbol_248 (_ bv1 32)))))
(assert (not (not (= symbol_246 (_ bv1 32)))))
(assert (not (not (= symbol_244 (_ bv1 32)))))
(assert (not (not (= symbol_242 (_ bv1 32)))))
(assert (not (not (= symbol_240 (_ bv1 32)))))
(assert (not (not (= symbol_238 (_ bv1 32)))))
(assert (not (not (= symbol_236 (_ bv1 32)))))
(assert (not (not (= symbol_234 (_ bv1 32)))))
(assert (not (not (= symbol_232 (_ bv1 32)))))
(assert (not (not (= symbol_230 (_ bv1 32)))))
(assert (not (not (= symbol_228 (_ bv1 32)))))
(assert (not (not (= symbol_225 (_ bv1 32)))))
(assert (not (not (= symbol_223 (_ bv1 32)))))
(assert (not (not (= symbol_221 (_ bv1 32)))))
(assert (not (not (= symbol_219 (_ bv1 32)))))
(assert (not (not (= symbol_216 (_ bv1 32)))))
(assert (not (not (= symbol_214 (_ bv1 32)))))
(assert (not (not (= symbol_212 (_ bv1 32)))))
(assert (not (not (= symbol_210 (_ bv1 32)))))
(assert (not (not (= symbol_208 (_ bv1 32)))))
(assert (not (not (= symbol_206 (_ bv1 32)))))
(assert (not (not (= symbol_204 (_ bv1 32)))))
(assert (not (not (= symbol_202 (_ bv1 32)))))
(assert (not (not (= symbol_200 (_ bv1 32)))))
(assert (not (not (= symbol_198 (_ bv1 32)))))
(assert (not (not (= symbol_196 (_ bv1 32)))))
(assert (not (not (= symbol_194 (_ bv1 32)))))
(assert (not (not (= symbol_192 (_ bv1 32)))))
(assert (not (not (= symbol_190 (_ bv1 32)))))
(assert (not (not (= symbol_189 (_ bv1 32)))))
(assert (not (not (= symbol_187 (_ bv1 32)))))
(assert (not (not (= symbol_185 (_ bv1 32)))))
(assert (not (not (= symbol_183 (_ bv1 32)))))
(assert (not (not (= symbol_181 (_ bv1 32)))))
(assert (not (not (= symbol_179 (_ bv1 32)))))
(assert (not (not (= symbol_177 (_ bv1 32)))))
(assert (not (not (= symbol_176 (_ bv1 32)))))
(assert (not (not (= symbol_174 (_ bv1 32)))))
(assert (not (not (= symbol_172 (_ bv1 32)))))
(assert (not (not (= symbol_170 (_ bv1 32)))))
(assert (not (not (= symbol_168 (_ bv1 32)))))
(assert (not (not (= symbol_166 (_ bv1 32)))))
(assert (not (not (= symbol_164 (_ bv1 32)))))
(assert (not (not (= symbol_162 (_ bv1 32)))))
(assert (not (not (= symbol_160 (_ bv1 32)))))
(assert (not (not (= symbol_158 (_ bv1 32)))))
(assert (not (not (= symbol_156 (_ bv1 32)))))
(assert (not (not (= symbol_154 (_ bv1 32)))))
(assert (not (not (= symbol_152 (_ bv1 32)))))
(assert (not (not (= symbol_150 (_ bv1 32)))))
(assert (not (not (= symbol_148 (_ bv1 32)))))
(assert (not (not (= symbol_146 (_ bv1 32)))))
(assert (not (not (= symbol_143 (_ bv1 32)))))
(assert (not (not (= symbol_141 (_ bv1 32)))))
(assert (not (not (= symbol_139 (_ bv1 32)))))
(assert (not (not (= symbol_137 (_ bv1 32)))))
(assert (not (not (= symbol_135 (_ bv1 32)))))
(assert (not (not (= symbol_133 (_ bv1 32)))))
(assert (not (not (= symbol_131 (_ bv1 32)))))
(assert (not (not (= symbol_129 (_ bv1 32)))))
(assert (not (not (= symbol_127 (_ bv1 32)))))
(assert (not (not (= symbol_125 (_ bv1 32)))))
(assert (not (not (= symbol_122 (_ bv1 32)))))
(assert (not (not (= symbol_120 (_ bv1 32)))))
(assert (not (not (= symbol_118 (_ bv1 32)))))
(assert (not (not (= symbol_116 (_ bv1 32)))))
(assert (not (not (= symbol_114 (_ bv1 32)))))
(assert (not (not (= symbol_112 (_ bv1 32)))))
(assert (not (not (= symbol_110 (_ bv1 32)))))
(assert (not (not (= symbol_108 (_ bv1 32)))))
(assert (not (not (= symbol_106 (_ bv1 32)))))
(assert (not (not (= symbol_104 (_ bv1 32)))))
(assert (not (not (= symbol_102 (_ bv1 32)))))
(assert (not (not (= symbol_100 (_ bv1 32)))))
(assert (not (not (= symbol_98 (_ bv1 32)))))
(assert (not (not (= symbol_96 (_ bv1 32)))))
(assert (not (not (= symbol_94 (_ bv1 32)))))
(assert (not (not (= symbol_92 (_ bv1 32)))))
(assert (not (not (= symbol_90 (_ bv1 32)))))
(assert (not (not (= symbol_89 (_ bv1 32)))))
(assert (not (not (= symbol_86 (_ bv1 32)))))
(assert (not (not (= symbol_84 (_ bv1 32)))))
(assert (not (not (= symbol_82 (_ bv1 32)))))
(assert (not (not (= symbol_80 (_ bv1 32)))))
(assert (not (not (= symbol_78 (_ bv1 32)))))
(assert (not (not (= symbol_76 (_ bv1 32)))))
(assert (not (not (= symbol_75 (_ bv1 32)))))
(assert (not (not (= symbol_73 (_ bv1 32)))))
(assert (not (not (= symbol_70 (_ bv1 32)))))
(assert (not (not (= symbol_69 (_ bv1 32)))))
(assert (not (not (= symbol_67 (_ bv1 32)))))
(assert (not (not (= symbol_65 (_ bv1 32)))))
(assert (not (not (= symbol_63 (_ bv1 32)))))
(assert (not (not (= symbol_61 (_ bv1 32)))))
(assert (not (not (= symbol_60 (_ bv1 32)))))
(assert (not (not (= symbol_57 (_ bv1 32)))))
(assert (not (not (= symbol_56 (_ bv1 32)))))
(assert (not (not (= symbol_53 (_ bv1 32)))))
(assert (not (not (= symbol_52 (_ bv1 32)))))
(assert (not (not (= symbol_50 (_ bv1 32)))))
(assert (not (not (= symbol_47 (_ bv1 32)))))
(assert (not (not (= symbol_45 (_ bv1 32)))))
(assert (not (not (= symbol_44 (_ bv1 32)))))
(assert (not (not (= symbol_42 (_ bv1 32)))))
(assert (not (not (= symbol_40 (_ bv1 32)))))
(assert (not (not (= symbol_39 (_ bv1 32)))))
(assert (not (not (= symbol_36 (_ bv1 32)))))
(assert (not (not (= symbol_34 (_ bv1 32)))))
(assert (not (not (= symbol_32 (_ bv1 32)))))
(assert (not (not (= symbol_30 (_ bv1 32)))))
(assert (not (not (= symbol_28 (_ bv1 32)))))
(assert (not (not (= symbol_26 (_ bv1 32)))))
(assert (not (not (= symbol_24 (_ bv1 32)))))
(assert (not (not (= symbol_22 (_ bv1 32)))))
(assert (not (not (= symbol_20 (_ bv1 32)))))
(assert (not (not (= symbol_18 (_ bv1 32)))))
(assert (not (not (= symbol_16 (_ bv1 32)))))
(assert (not (not (= symbol_14 (_ bv1 32)))))
(assert (not (not (= symbol_12 (_ bv1 32)))))
(assert (not (not (= symbol_10 (_ bv1 32)))))
(assert (not (not (= symbol_8 (_ bv1 32)))))
(assert (not (not (= symbol_6 (_ bv1 32)))))
(assert (not (not (= symbol_3 (_ bv1 32)))))
(assert (not (not (= symbol_1 (_ bv1 32)))))
(assert (not (not (= symbol_0 (_ bv1 32)))))
(check-sat)